25 27
112 141 2
126 176 2
120 321 1
116 162 1
121 306 1
54 141 1
127 194 1
127 177 1
127 173 1
121 294 1
140 340 1
122 277 1
116 221 1
126 193 1
111 329 1
112 354 1
135 222 1
135 210 1
123 160 1
133 142 1
77 283 1
187 307 1
138 168 1
120 332 1
117 316 1
500 1000 
500 1000 
500 1000 
500 1000 
500 1000 
500 1000 
500 1000 
500 1000 
500 1000 
500 1000 
500 1000 
500 1000 
500 1000 
500 1000 
500 1000 
500 1000 
500 1000 
500 1000 
500 1000 
500 1000 
500 1000 
500 1000 
500 1000 
500 1000 
500 1000 
500 1000 
500 1000 
